c Output_time 26.03.2020 18:13:12_+0100 1585242792628674418
c ** Program information **
c program_name                          "QBRG_debug"
c version                               "0.3.20"
c date                                  "25.3.2020"
c gid_id                                "673970833836058123f633335630c185360d632e"
c author                                "Oliver Kullmann"
c url                                   "https://github.com/OKullmann/oklibrary/blob/master/Satisfiability/Transformers/Generators/Random/QBRG.cpp"
c ** Machine information **
c machine_name                          "chyna-Lenovo-G50-70"
c bogomips                              3791.08
c ** Compilation information **
c compiler_version                      "g++ 7.5.0"
c compilation_date                      "Mar_26_2020 11:16:30"
c compilation_options                   "--std=c++17 -pedantic -fmax-errors=5 -Wall -Wextra -g -D_GLIBCXX_DEBUG"
c NDEBUG                                0
c OPTIMIZE                              0
c ** Parameters **
c command-line                          "./QBRG_debug" "e40 a40 40" "258*1,1|2-2,1|3-3,1" "" "1,t" ""
c output                                "QuBlRaGe_120_258_1585242792628516851.qdimacs"
c options                               "filtered,renamed"
c num_quantifier_blocks                 3
c  quantifier_blocks                    1:e1-40 2:a41-80 3:e81-120
c num_clause-blocks                     1
c  clause-blocks                        258 * {1-40,1,1/2} | {41-80,1,1/2} | {81-120,1,1/2}
c num_e-seeds                           30+2=32
c  e-seeds                              1 0 1 0 4 120 2 40 1 40 0 40 1 258 3 1 1 1 1 2 2 2 1 1 2 3 3 1 1 2 1 1585242792628516315
p cnf 120 258
e 1 2 3 4 5 6 7 8 9 10 11 12 13 14 15 16 17 18 19 20 21 22 23 24 25 26 27 28 29 30 31 32 33 34 35 36 37 38 39 40 0
a 41 42 43 44 45 46 47 48 49 50 51 52 53 54 55 56 57 58 59 60 61 62 63 64 65 66 67 68 69 70 71 72 73 74 75 76 77 78 79 80 0
e 81 82 83 84 85 86 87 88 89 90 91 92 93 94 95 96 97 98 99 100 101 102 103 104 105 106 107 108 109 110 111 112 113 114 115 116 117 118 119 120 0
-29 -60 -81 0
-34 60 -81 0
2 -61 -81 0
3 54 81 0
-11 64 81 0
36 -71 81 0
-14 54 -82 0
-21 63 -82 0
22 67 -82 0
-30 -45 82 0
-38 45 82 0
28 49 82 0
13 58 82 0
-1 -75 82 0
-6 -77 82 0
19 55 -83 0
-40 61 -83 0
-38 -64 -83 0
-1 65 83 0
10 -68 83 0
39 -51 -84 0
-10 -65 -84 0
27 -73 -84 0
-12 -41 84 0
39 56 84 0
2 61 84 0
-15 -79 84 0
-16 -42 -85 0
-13 71 -85 0
35 -46 85 0
40 -52 85 0
2 72 85 0
-39 -78 -86 0
-22 -64 86 0
-17 58 -87 0
-20 -61 -87 0
-28 71 -87 0
37 -61 87 0
-30 64 87 0
8 -74 87 0
37 -76 87 0
-37 49 -88 0
-3 53 -88 0
-7 66 -88 0
-30 69 -88 0
20 79 -88 0
-13 41 88 0
-32 62 88 0
-4 -52 -89 0
7 -61 -89 0
18 -68 -89 0
-34 60 89 0
12 -61 89 0
-39 -69 89 0
16 -46 -90 0
28 -41 90 0
-2 -42 90 0
6 60 90 0
-12 68 90 0
2 43 -91 0
34 48 -91 0
-22 55 -91 0
22 57 -91 0
-8 -66 -91 0
-25 -46 91 0
9 47 91 0
9 -50 91 0
-19 54 91 0
-4 -80 91 0
9 -47 -92 0
13 67 -92 0
-3 -71 -92 0
-20 -73 -92 0
33 79 -92 0
-32 54 92 0
4 -55 92 0
-10 -53 -93 0
-13 -57 -93 0
-23 -62 -93 0
28 64 -93 0
32 -65 -93 0
-27 -48 93 0
-18 -59 93 0
29 -62 93 0
15 -77 93 0
-31 46 -94 0
14 54 -94 0
21 -58 -94 0
-23 68 -94 0
8 77 -94 0
-40 -75 94 0
-5 75 94 0
30 45 -95 0
-21 46 -95 0
12 44 95 0
-1 58 95 0
-33 -70 95 0
22 76 95 0
14 -77 95 0
-24 -41 -96 0
-21 58 -96 0
39 53 96 0
16 55 96 0
31 -78 96 0
7 48 -97 0
39 -61 -97 0
9 -66 -97 0
16 65 97 0
18 71 97 0
-18 47 -98 0
22 62 -98 0
35 63 -98 0
-15 -71 -98 0
-11 75 -98 0
-17 44 98 0
3 49 98 0
-21 -53 98 0
30 64 98 0
28 -49 -99 0
-28 57 -99 0
-38 69 -99 0
9 48 99 0
28 68 99 0
-31 45 -100 0
-26 50 -100 0
-35 -55 -100 0
-23 -42 100 0
-26 56 100 0
14 -65 100 0
40 -51 -101 0
-2 66 -101 0
-11 66 -101 0
4 72 -101 0
-6 -51 -102 0
-15 57 -102 0
-8 -62 -102 0
-25 68 -102 0
-16 -78 -102 0
34 78 -102 0
-4 -41 102 0
-17 67 102 0
-11 -49 -103 0
-38 -76 -103 0
-35 -55 103 0
37 -55 103 0
-15 74 103 0
-24 -42 -104 0
-40 46 -104 0
-32 -68 -104 0
14 70 -104 0
37 51 104 0
-6 62 104 0
-23 62 104 0
-7 -44 -105 0
2 57 -105 0
13 63 -105 0
2 -65 -105 0
-29 -75 -105 0
-26 78 -105 0
-11 47 105 0
-38 -59 105 0
37 60 105 0
14 71 105 0
32 -58 -106 0
24 58 -106 0
-4 -73 -106 0
-25 -43 106 0
-4 58 106 0
-20 -64 106 0
7 64 106 0
6 56 -107 0
-3 -67 -107 0
9 73 -107 0
-31 73 -107 0
12 44 107 0
3 -45 107 0
-34 58 107 0
18 60 107 0
-23 -71 107 0
10 41 -108 0
19 49 -108 0
-37 52 -108 0
-30 -59 -108 0
22 70 -108 0
30 43 108 0
7 45 108 0
-31 -80 108 0
24 -46 -109 0
-31 63 -109 0
-19 -42 109 0
-13 -52 109 0
28 44 -110 0
24 -51 -110 0
33 -51 -110 0
-35 55 -110 0
7 50 110 0
1 -57 -111 0
8 71 -111 0
-36 -74 -111 0
-30 -78 -111 0
5 52 111 0
-5 -59 111 0
-24 55 112 0
-20 56 112 0
-7 59 112 0
-9 -67 -113 0
8 -68 -113 0
15 -68 -113 0
-22 -68 -113 0
-7 -58 113 0
-5 -61 113 0
26 -66 113 0
28 -73 113 0
-7 -46 -114 0
-40 -60 -114 0
28 67 -114 0
-11 -69 -114 0
-1 -44 114 0
31 -63 114 0
23 -53 -115 0
-14 -56 -115 0
36 57 -115 0
-28 -42 115 0
6 49 115 0
35 -58 115 0
10 60 115 0
-31 60 115 0
-11 -75 -116 0
36 -44 116 0
-8 53 116 0
-1 -71 116 0
37 -60 -117 0
-39 -67 -117 0
2 -77 -117 0
39 77 -117 0
-27 43 117 0
21 -69 117 0
-12 -73 117 0
-40 -63 -118 0
17 -77 -118 0
-5 58 118 0
2 -80 118 0
35 -51 -119 0
30 -72 -119 0
-8 -77 -119 0
-12 -77 -119 0
-33 -52 119 0
10 -49 -120 0
-2 52 -120 0
-14 -54 -120 0
1 -55 -120 0
15 -77 -120 0
24 77 -120 0
-21 79 -120 0
16 -67 120 0
-5 69 120 0
-31 -76 120 0
-37 79 120 0
